solution status: optimal solution found
objective value:                     221985.290999716
d11(0,0)                                            1 	(obj:0)
d11(1,1)                                            1 	(obj:0)
d11(1,2)                                            1 	(obj:0)
d11(2,3)                                            1 	(obj:0)
d11(2,4)                                            1 	(obj:0)
d11(2,5)                                            1 	(obj:0)
d11(3,7)                                            1 	(obj:0)
d11(3,8)                                            1 	(obj:0)
d11(3,9)                                            1 	(obj:0)
d11(3,11)                                           1 	(obj:0)
d11(3,12)                                           1 	(obj:0)
d11(3,13)                                           1 	(obj:0)
d11(4,15)                                           1 	(obj:0)
d11(4,17)                                           1 	(obj:0)
d11(4,19)                                           1 	(obj:0)
d11(4,20)                                           1 	(obj:0)
d11(4,21)                                           1 	(obj:0)
d11(4,22)                                           1 	(obj:0)
d11(4,23)                                           1 	(obj:0)
d11(4,24)                                           1 	(obj:0)
d11(4,25)                                           1 	(obj:0)
d11(4,27)                                           1 	(obj:0)
d11(4,28)                                           1 	(obj:0)
d11(4,29)                                           1 	(obj:0)
d11(4,30)                                           1 	(obj:0)
d11(5,31)                                           1 	(obj:0)
d11(5,32)                                           1 	(obj:0)
d11(5,33)                                           1 	(obj:0)
d11(5,34)                                           1 	(obj:0)
d11(5,35)                                           1 	(obj:0)
d11(5,36)                                           1 	(obj:0)
d11(5,37)                                           1 	(obj:0)
d11(5,39)                                           1 	(obj:0)
d11(5,40)                                           1 	(obj:0)
d11(5,41)                                           1 	(obj:0)
d11(5,42)                                           1 	(obj:0)
d11(5,43)                                           1 	(obj:0)
d11(5,44)                                           1 	(obj:0)
d11(5,45)                                           1 	(obj:0)
d11(5,46)                                           1 	(obj:0)
d11(5,47)                                           1 	(obj:0)
d11(5,48)                                           1 	(obj:0)
d11(5,49)                                           1 	(obj:0)
d11(5,50)                                           1 	(obj:0)
d11(5,51)                                           1 	(obj:0)
d11(5,52)                                           1 	(obj:0)
d11(5,53)                                           1 	(obj:0)
d11(5,54)                                           1 	(obj:0)
d11(5,55)                                           1 	(obj:0)
d11(5,56)                                           1 	(obj:0)
d11(5,57)                                           1 	(obj:0)
d11(5,58)                                           1 	(obj:0)
d11(5,59)                                           1 	(obj:0)
d11(5,60)                                           1 	(obj:0)
d11(5,61)                                           1 	(obj:0)
d11(5,62)                                           1 	(obj:0)
d21(4,15)                                           1 	(obj:0)
d21(5,31)                                           1 	(obj:0)
d21(5,32)                                           1 	(obj:0)
d21(5,33)                                           1 	(obj:0)
d21(5,35)                                           1 	(obj:0)
d21(5,39)                                           1 	(obj:0)
d21(5,47)                                           1 	(obj:0)
STE(1,1)                             11506.4997977777 	(obj:0)
STE(0,0)                                        15750 	(obj:0)
STE(1,2)                             13164.7496966665 	(obj:0)
STE(2,3)                             8588.24989888875 	(obj:0)
STE(2,4)                             10246.4997977777 	(obj:0)
STE(2,5)                             10246.4997977776 	(obj:0)
STE(2,6)                             11904.7496966665 	(obj:0)
STE(3,7)                                         5670 	(obj:0)
STE(3,8)                             7328.24989888875 	(obj:0)
STE(3,9)                             7328.24989888895 	(obj:0)
STE(3,10)                            8986.49979777769 	(obj:0)
STE(3,11)                            7328.24989888885 	(obj:0)
STE(3,12)                            8986.49979777767 	(obj:0)
STE(3,13)                            8986.49979777779 	(obj:0)
STE(3,14)                            10644.7496966665 	(obj:0)
STE(4,15)                            2751.75010111115 	(obj:0)
STE(4,16)                                        4410 	(obj:0)
STE(4,17)                             4409.9999999999 	(obj:0)
STE(4,18)                            6068.24989888875 	(obj:0)
STE(4,19)                             4410.0000000001 	(obj:0)
STE(4,20)                            6068.24989888895 	(obj:0)
STE(4,21)                            6068.24989888885 	(obj:0)
STE(4,22)                            7726.49979777769 	(obj:0)
STE(4,23)                                        4410 	(obj:0)
STE(4,24)                             6068.2498988888 	(obj:0)
STE(4,25)                            6068.24989888882 	(obj:0)
STE(4,26)                            7726.49979777767 	(obj:0)
STE(4,27)                            6068.24989888895 	(obj:0)
STE(4,28)                            7726.49979777776 	(obj:0)
STE(4,29)                            7726.49979777769 	(obj:0)
STE(4,30)                            9384.74969666654 	(obj:0)
STE(5,31)                           -166.499797777692 	(obj:0)
STE(5,32)                            1491.75010111113 	(obj:0)
STE(5,33)                            1491.75010111116 	(obj:0)
STE(5,34)                                        3150 	(obj:0)
STE(5,35)                            1491.75010111105 	(obj:0)
STE(5,36)                             3149.9999999999 	(obj:0)
STE(5,37)                             3149.9999999999 	(obj:0)
STE(5,38)                            4808.24989888875 	(obj:0)
STE(5,39)                            1491.75010111125 	(obj:0)
STE(5,40)                             3150.0000000001 	(obj:0)
STE(5,41)                             3150.0000000001 	(obj:0)
STE(5,42)                            4808.24989888895 	(obj:0)
STE(5,43)                                        3150 	(obj:0)
STE(5,44)                            4808.24989888885 	(obj:0)
STE(5,45)                            4808.24989888885 	(obj:0)
STE(5,46)                            6466.49979777769 	(obj:0)
STE(5,47)                            1491.75010111115 	(obj:0)
STE(5,48)                                        3150 	(obj:0)
STE(5,49)                            3149.99999999996 	(obj:0)
STE(5,50)                            4808.24989888877 	(obj:0)
STE(5,51)                            3149.99999999997 	(obj:0)
STE(5,52)                            4808.24989888882 	(obj:0)
STE(5,53)                            4808.24989888882 	(obj:0)
STE(5,54)                            6466.49979777767 	(obj:0)
STE(5,55)                             3150.0000000001 	(obj:0)
STE(5,56)                            4808.24989888895 	(obj:0)
STE(5,57)                            4808.24989888892 	(obj:0)
STE(5,58)                            6466.49979777776 	(obj:0)
STE(5,59)                            4808.24989888885 	(obj:0)
STE(5,60)                            6466.49979777769 	(obj:0)
STE(5,61)                            6466.49979777769 	(obj:0)
STE(5,62)                            8124.74969666654 	(obj:0)
y1(5,39)                             1492.42490899996 	(obj:0)
y1(5,41)                             1492.42490899996 	(obj:0)
y1(5,43)                             1492.42490899996 	(obj:0)
y1(5,45)                             1492.42490899996 	(obj:0)
y1(5,47)                             1492.42490899996 	(obj:0)
y1(5,49)                             1492.42490899996 	(obj:0)
y1(5,51)                             1492.42490899996 	(obj:0)
y1(5,53)                             1492.42490899996 	(obj:0)
y1(5,55)                             1492.42490899996 	(obj:0)
y1(5,57)                             1492.42490899996 	(obj:0)
y1(5,59)                             1492.42490899996 	(obj:0)
y1(5,61)                             1492.42490899996 	(obj:0)
AVE(1)                                   3216.9117036 	(obj:0)
AVE(2)                                   3366.1541945 	(obj:0)
WB(3)                                    3515.3966854 	(obj:0)
AVE(3)                                   3515.3966854 	(obj:0)
WB(4)                                3515.39406545826 	(obj:0)
AVE(4)                               3515.39406545826 	(obj:0)
WB(5)                                3167.15385943327 	(obj:0)
AVE(5)                               3167.15385943327 	(obj:0)
WG(1)                                    3216.9117036 	(obj:10)
WG(2)                                    3366.1541945 	(obj:10)
BG(1)                                2196.44740048175 	(obj:10)
BG(2)                                830.138304479639 	(obj:10)
BG(3)                                4196.29249897959 	(obj:10)
BG(4)                                4196.29249897959 	(obj:10)
BG(5)                                4196.29249897959 	(obj:10)
y1(1,1)                              2685.15018200007 	(obj:0)
y1(1,2)                              1192.72527300011 	(obj:0)
y1(2,3)                              1492.42490900005 	(obj:0)
y1(2,5)                              1492.42490900005 	(obj:0)
y1(3,7)                              1492.42490899987 	(obj:0)
y1(3,9)                              1492.42490899987 	(obj:0)
y1(3,11)                             1492.42490899987 	(obj:0)
y1(3,13)                             1492.42490899987 	(obj:0)
y1(4,15)                             1492.42490899996 	(obj:0)
y1(4,17)                             1492.42490899996 	(obj:0)
y1(4,19)                             1492.42490899996 	(obj:0)
y1(4,21)                             1492.42490899996 	(obj:0)
y1(4,23)                             1492.42490899996 	(obj:0)
y1(4,25)                             1492.42490899996 	(obj:0)
y1(4,27)                             1492.42490899996 	(obj:0)
y1(4,29)                             1492.42490899996 	(obj:0)
y1(5,31)                             1492.42490899996 	(obj:0)
y1(5,33)                             1492.42490899996 	(obj:0)
y1(5,35)                             1492.42490899996 	(obj:0)
y1(5,37)                             1492.42490899996 	(obj:0)
